0 0 0 0
0 1 0 0
0 2 0 0
0 3 0 7
0 4 0 6
0 5 0 14
0 6 0 73
0 7 0 16
0 8 0 18
0 9 0 7
0 10 0 15
0 11 0 52
0 12 0 21
0 13 0 15
0 14 0 9
0 15 0 34
0 16 0 34
0 17 0 112
0 18 0 26
0 19 0 44
0 20 0 24
0 21 0 34
0 22 0 75
0 23 0 44
0 24 0 84
0 25 0 18
0 26 0 40
0 27 0 52
0 28 0 26
0 29 0 68
0 30 0 87
0 31 0 60
0 32 0 43
0 33 0 40
0 34 0 81
0 35 0 60
0 36 0 7
0 37 0 86
0 38 0 20
0 39 0 54
0 40 0 83
0 41 0 53
0 42 0 66
0 43 0 68
0 44 0 87
0 45 0 101
0 46 0 122
0 47 0 95
0 48 0 58
0 49 0 130
0 50 0 58
0 51 0 111
0 52 0 94
0 53 0 162
0 54 0 140
0 55 0 104
0 56 0 103
0 57 0 127
0 58 0 75
0 59 0 105
0 60 0 75
0 61 0 97
0 62 0 137
0 63 0 84
0 64 0 121
0 65 0 50
0 66 0 183
0 67 0 102
0 68 0 182
0 69 0 151
0 70 0 130
0 71 0 141
0 72 0 103
0 73 0 143
0 74 0 112
0 75 0 95
0 76 0 165
0 77 0 204
0 78 0 174
0 79 0 128
0 80 0 121
0 81 0 127
0 82 0 186
0 83 0 138
0 84 0 104
0 85 0 157
0 86 0 140
0 87 0 167
0 88 0 173
0 89 0 162
0 90 0 134
0 91 0 158
0 92 0 167
0 93 0 188
0 94 0 182
0 95 0 183
0 96 0 157
0 97 0 173
0 98 0 168
0 99 0 151
0 100 0 162
0 101 0 160
0 102 0 188
0 103 0 192
0 104 0 192
0 105 0 151
0 106 0 174
0 107 0 194
0 108 0 197
0 109 0 192
0 110 0 194
0 111 0 203
0 112 0 211
0 113 0 198
0 114 0 213
0 115 0 213
0 116 0 210
0 117 0 176
0 118 0 219
0 119 0 213
0 120 0 216
0 121 0 221
